(set-logic QF_S)
(set-option :strings-exp true)
(set-option :produce-models true)
(declare-fun sigmaStar_0 () String)
(declare-fun literal_1 () String)
(assert (= literal_1 "\x4f\x74\x68\x65\x72\x20\x50\x72\x65\x66\x65\x72\x65\x6e\x63\x65\x73\x3a"))
(assert (str.in.re literal_1 (re.++ (re.* re.allchar) (re.++ (str.to.re "\x5c\x3c\x53\x43\x52\x49\x50\x54") (re.* re.allchar)))))
(check-sat)
(get-model)
